Version identifier: 20.1.0.0 | 2020-11-10 | 9bedb6d68
Tried aggregator 2 times.
MIP Presolve eliminated 639 rows and 348 columns.
MIP Presolve modified 1309 coefficients.
Aggregator did 83 substitutions.
Reduced MIP has 559 rows, 476 columns, and 1778 nonzeros.
Reduced MIP has 151 binaries, 325 generals, 0 SOSs, and 0 indicators.
Presolve time = 0.01 sec. (2.81 ticks)
Found incumbent of value 546.000000 after 0.01 sec. (4.41 ticks)
Probing fixed 15 vars, tightened 121 bounds.
Probing time = 0.00 sec. (0.40 ticks)
Tried aggregator 2 times.
Detecting symmetries...
MIP Presolve eliminated 225 rows and 19 columns.
MIP Presolve modified 47 coefficients.
Aggregator did 3 substitutions.
Reduced MIP has 331 rows, 454 columns, and 1079 nonzeros.
Reduced MIP has 217 binaries, 237 generals, 0 SOSs, and 0 indicators.
Presolve time = 0.00 sec. (1.55 ticks)
Probing time = 0.00 sec. (0.11 ticks)
Clique table members: 31.
MIP emphasis: balance optimality and feasibility.
MIP search method: dynamic search.
Parallel mode: deterministic, using up to 24 threads.
Root relaxation solution time = 0.00 sec. (1.05 ticks)

        Nodes                                         Cuts/
   Node  Left     Objective  IInf  Best Integer    Best Bound    ItCnt     Gap

*     0+    0                          546.0000        0.0000           100.00%
*     0+    0                           23.0000        0.0000           100.00%
      0     0        0.0000    27       23.0000        0.0000      128  100.00%
      0     0        0.9000    43       23.0000      Cuts: 76      196   96.09%
*     0+    0                           11.0000        0.9000            91.82%
      0     0        1.2500   141       11.0000      Cuts: 60      306   88.64%
      0     0        2.0000    51       11.0000      Cuts: 57      334   81.82%
      0     0        2.0000   140       11.0000      Cuts: 43      382   81.82%
      0     0        2.0000   149       11.0000  ZeroHalf: 39      432   81.82%
*     0+    0                            7.0000        2.0000            71.43%
      0     0        cutoff              7.0000        7.0000      432    0.00%
Elapsed time = 0.42 sec. (39.77 ticks, tree = 0.01 MB, solutions = 4)

Cover cuts applied:  2
Implied bound cuts applied:  15
Mixed integer rounding cuts applied:  4
Zero-half cuts applied:  27
Gomory fractional cuts applied:  7

Root node processing (before b&c):
  Real time             =    0.42 sec. (39.82 ticks)
Parallel b&c, 24 threads:
  Real time             =    0.00 sec. (0.00 ticks)
  Sync time (average)   =    0.00 sec.
  Wait time (average)   =    0.00 sec.
                          ------------
Total (root+branch&cut) =    0.42 sec. (39.82 ticks)

Solution status = Optimal
Solution LB = 7
Solution UB = 7
Runtime = 0.429528 seconds
	Command being timed: "/home/min/git_repos/CS598MEBProject/CNT-ILP/build/cnt -s 2 ./output/k6_n15/simC_c1_k6_n15_u2_s2_del04.input-left.cnp"
	User time (seconds): 7.04
	System time (seconds): 0.05
	Percent of CPU this job got: 1526%
	Elapsed (wall clock) time (h:mm:ss or m:ss): 0:00.46
	Average shared text size (kbytes): 0
	Average unshared data size (kbytes): 0
	Average stack size (kbytes): 0
	Average total size (kbytes): 0
	Maximum resident set size (kbytes): 54744
	Average resident set size (kbytes): 0
	Major (requiring I/O) page faults: 0
	Minor (reclaiming a frame) page faults: 10852
	Voluntary context switches: 3306
	Involuntary context switches: 954
	Swaps: 0
	File system inputs: 0
	File system outputs: 16
	Socket messages sent: 0
	Socket messages received: 0
	Signals delivered: 0
	Page size (bytes): 4096
	Exit status: 0
